1 0 0 1 1 0 1 1 0 
0 22 8 9 24 14 14 8 39 
22 0 19 21 12 18 24 4 39 
8 19 0 8 10 21 40 28 10 
9 21 8 0 28 26 8 28 24 
24 12 10 28 0 10 30 15 13 
14 18 21 26 10 0 37 12 20 
14 24 40 8 30 37 0 20 13 
8 4 28 28 15 12 20 0 10 
39 39 10 24 13 20 13 10 0 
5 2
1P 3B 4P 7P 9B 8P 2B 5P 6B = 87